# Solution for model Truck_Routing
# Objective value = 9.4942812399930881e+03
x[Tr1,D0,C1] 0
x[Tr1,D0,C2] 0
x[Tr1,D0,C3] 0
x[Tr1,D0,C4] 0
x[Tr1,D0,C5] 0
x[Tr1,D0,C6] 0
x[Tr1,D0,C7] 0
x[Tr1,D0,C8] 0
x[Tr1,D0,C9] 0
x[Tr1,D0,C10] 0
x[Tr1,C1,C2] 0
x[Tr1,C1,C3] 0
x[Tr1,C1,C4] 0
x[Tr1,C1,C5] 0
x[Tr1,C1,C6] 0
x[Tr1,C1,C7] 0
x[Tr1,C1,C8] 0
x[Tr1,C1,C9] 0
x[Tr1,C1,C10] 0
x[Tr1,C1,D1] 0
x[Tr1,C2,C1] 0
x[Tr1,C2,C3] 0
x[Tr1,C2,C4] 0
x[Tr1,C2,C5] 0
x[Tr1,C2,C6] 0
x[Tr1,C2,C7] 0
x[Tr1,C2,C8] 0
x[Tr1,C2,C9] 0
x[Tr1,C2,C10] 0
x[Tr1,C2,D1] 0
x[Tr1,C3,C1] 0
x[Tr1,C3,C2] 0
x[Tr1,C3,C4] 0
x[Tr1,C3,C5] 0
x[Tr1,C3,C6] 0
x[Tr1,C3,C7] 0
x[Tr1,C3,C8] 0
x[Tr1,C3,C9] 0
x[Tr1,C3,C10] 0
x[Tr1,C3,D1] 0
x[Tr1,C4,C1] 0
x[Tr1,C4,C2] 0
x[Tr1,C4,C3] 0
x[Tr1,C4,C5] 0
x[Tr1,C4,C6] 0
x[Tr1,C4,C7] 0
x[Tr1,C4,C8] 0
x[Tr1,C4,C9] 0
x[Tr1,C4,C10] 0
x[Tr1,C4,D1] 0
x[Tr1,C5,C1] 0
x[Tr1,C5,C2] 0
x[Tr1,C5,C3] 0
x[Tr1,C5,C4] 0
x[Tr1,C5,C6] 0
x[Tr1,C5,C7] 0
x[Tr1,C5,C8] 0
x[Tr1,C5,C9] 0
x[Tr1,C5,C10] 0
x[Tr1,C5,D1] 0
x[Tr1,C6,C1] 0
x[Tr1,C6,C2] 0
x[Tr1,C6,C3] 0
x[Tr1,C6,C4] 0
x[Tr1,C6,C5] 0
x[Tr1,C6,C7] 0
x[Tr1,C6,C8] 0
x[Tr1,C6,C9] 0
x[Tr1,C6,C10] 0
x[Tr1,C6,D1] 0
x[Tr1,C7,C1] 0
x[Tr1,C7,C2] 0
x[Tr1,C7,C3] 0
x[Tr1,C7,C4] 0
x[Tr1,C7,C5] 0
x[Tr1,C7,C6] 0
x[Tr1,C7,C8] 0
x[Tr1,C7,C9] 0
x[Tr1,C7,C10] 0
x[Tr1,C7,D1] 0
x[Tr1,C8,C1] 0
x[Tr1,C8,C2] 0
x[Tr1,C8,C3] 0
x[Tr1,C8,C4] 0
x[Tr1,C8,C5] 0
x[Tr1,C8,C6] 0
x[Tr1,C8,C7] 0
x[Tr1,C8,C9] 0
x[Tr1,C8,C10] 0
x[Tr1,C8,D1] 0
x[Tr1,C9,C1] 0
x[Tr1,C9,C2] 0
x[Tr1,C9,C3] 0
x[Tr1,C9,C4] 0
x[Tr1,C9,C5] 0
x[Tr1,C9,C6] 0
x[Tr1,C9,C7] 0
x[Tr1,C9,C8] 0
x[Tr1,C9,C10] 0
x[Tr1,C9,D1] 0
x[Tr1,C10,C1] 0
x[Tr1,C10,C2] 0
x[Tr1,C10,C3] 0
x[Tr1,C10,C4] 0
x[Tr1,C10,C5] 0
x[Tr1,C10,C6] 0
x[Tr1,C10,C7] 0
x[Tr1,C10,C8] 0
x[Tr1,C10,C9] 0
x[Tr1,C10,D1] 0
x[Tr2,D0,C1] 0
x[Tr2,D0,C2] 0
x[Tr2,D0,C3] 0
x[Tr2,D0,C4] 0
x[Tr2,D0,C5] 0
x[Tr2,D0,C6] 0
x[Tr2,D0,C7] 0
x[Tr2,D0,C8] 0
x[Tr2,D0,C9] 0
x[Tr2,D0,C10] 0
x[Tr2,C1,C2] 0
x[Tr2,C1,C3] 0
x[Tr2,C1,C4] 0
x[Tr2,C1,C5] 0
x[Tr2,C1,C6] 0
x[Tr2,C1,C7] 0
x[Tr2,C1,C8] 0
x[Tr2,C1,C9] 0
x[Tr2,C1,C10] 0
x[Tr2,C1,D1] 0
x[Tr2,C2,C1] 0
x[Tr2,C2,C3] 0
x[Tr2,C2,C4] 0
x[Tr2,C2,C5] 0
x[Tr2,C2,C6] 0
x[Tr2,C2,C7] 0
x[Tr2,C2,C8] 0
x[Tr2,C2,C9] 0
x[Tr2,C2,C10] 0
x[Tr2,C2,D1] 0
x[Tr2,C3,C1] 0
x[Tr2,C3,C2] 0
x[Tr2,C3,C4] 0
x[Tr2,C3,C5] 0
x[Tr2,C3,C6] 0
x[Tr2,C3,C7] 0
x[Tr2,C3,C8] 0
x[Tr2,C3,C9] 0
x[Tr2,C3,C10] 0
x[Tr2,C3,D1] 0
x[Tr2,C4,C1] 0
x[Tr2,C4,C2] 0
x[Tr2,C4,C3] 0
x[Tr2,C4,C5] 0
x[Tr2,C4,C6] 0
x[Tr2,C4,C7] 0
x[Tr2,C4,C8] 0
x[Tr2,C4,C9] 0
x[Tr2,C4,C10] 0
x[Tr2,C4,D1] 0
x[Tr2,C5,C1] 0
x[Tr2,C5,C2] 0
x[Tr2,C5,C3] 0
x[Tr2,C5,C4] 0
x[Tr2,C5,C6] 0
x[Tr2,C5,C7] 0
x[Tr2,C5,C8] 0
x[Tr2,C5,C9] 0
x[Tr2,C5,C10] 0
x[Tr2,C5,D1] 0
x[Tr2,C6,C1] 0
x[Tr2,C6,C2] 0
x[Tr2,C6,C3] 0
x[Tr2,C6,C4] 0
x[Tr2,C6,C5] 0
x[Tr2,C6,C7] 0
x[Tr2,C6,C8] 0
x[Tr2,C6,C9] 0
x[Tr2,C6,C10] 0
x[Tr2,C6,D1] 0
x[Tr2,C7,C1] 0
x[Tr2,C7,C2] 0
x[Tr2,C7,C3] 0
x[Tr2,C7,C4] 0
x[Tr2,C7,C5] 0
x[Tr2,C7,C6] 0
x[Tr2,C7,C8] 0
x[Tr2,C7,C9] 0
x[Tr2,C7,C10] 0
x[Tr2,C7,D1] 0
x[Tr2,C8,C1] 0
x[Tr2,C8,C2] 0
x[Tr2,C8,C3] 0
x[Tr2,C8,C4] 0
x[Tr2,C8,C5] 0
x[Tr2,C8,C6] 0
x[Tr2,C8,C7] 0
x[Tr2,C8,C9] 0
x[Tr2,C8,C10] 0
x[Tr2,C8,D1] 0
x[Tr2,C9,C1] 0
x[Tr2,C9,C2] 0
x[Tr2,C9,C3] 0
x[Tr2,C9,C4] 0
x[Tr2,C9,C5] 0
x[Tr2,C9,C6] 0
x[Tr2,C9,C7] 0
x[Tr2,C9,C8] 0
x[Tr2,C9,C10] 0
x[Tr2,C9,D1] 0
x[Tr2,C10,C1] 0
x[Tr2,C10,C2] 0
x[Tr2,C10,C3] 0
x[Tr2,C10,C4] 0
x[Tr2,C10,C5] 0
x[Tr2,C10,C6] 0
x[Tr2,C10,C7] 0
x[Tr2,C10,C8] 0
x[Tr2,C10,C9] 0
x[Tr2,C10,D1] 0
x[Tr3,D0,C1] 0
x[Tr3,D0,C2] 0
x[Tr3,D0,C3] 0
x[Tr3,D0,C4] 0
x[Tr3,D0,C5] 0
x[Tr3,D0,C6] 0
x[Tr3,D0,C7] 0
x[Tr3,D0,C8] 0
x[Tr3,D0,C9] 0
x[Tr3,D0,C10] 0
x[Tr3,C1,C2] 0
x[Tr3,C1,C3] 0
x[Tr3,C1,C4] 0
x[Tr3,C1,C5] 0
x[Tr3,C1,C6] 0
x[Tr3,C1,C7] 0
x[Tr3,C1,C8] 0
x[Tr3,C1,C9] 0
x[Tr3,C1,C10] 0
x[Tr3,C1,D1] 0
x[Tr3,C2,C1] 0
x[Tr3,C2,C3] 0
x[Tr3,C2,C4] 0
x[Tr3,C2,C5] 0
x[Tr3,C2,C6] 0
x[Tr3,C2,C7] 0
x[Tr3,C2,C8] 0
x[Tr3,C2,C9] 0
x[Tr3,C2,C10] 0
x[Tr3,C2,D1] 0
x[Tr3,C3,C1] 0
x[Tr3,C3,C2] 0
x[Tr3,C3,C4] 0
x[Tr3,C3,C5] 0
x[Tr3,C3,C6] 0
x[Tr3,C3,C7] 0
x[Tr3,C3,C8] 0
x[Tr3,C3,C9] 0
x[Tr3,C3,C10] 0
x[Tr3,C3,D1] 0
x[Tr3,C4,C1] 0
x[Tr3,C4,C2] 0
x[Tr3,C4,C3] 0
x[Tr3,C4,C5] 0
x[Tr3,C4,C6] 0
x[Tr3,C4,C7] 0
x[Tr3,C4,C8] 0
x[Tr3,C4,C9] 0
x[Tr3,C4,C10] 0
x[Tr3,C4,D1] 0
x[Tr3,C5,C1] 0
x[Tr3,C5,C2] 0
x[Tr3,C5,C3] 0
x[Tr3,C5,C4] 0
x[Tr3,C5,C6] 0
x[Tr3,C5,C7] 0
x[Tr3,C5,C8] 0
x[Tr3,C5,C9] 0
x[Tr3,C5,C10] 0
x[Tr3,C5,D1] 0
x[Tr3,C6,C1] 0
x[Tr3,C6,C2] 0
x[Tr3,C6,C3] 0
x[Tr3,C6,C4] 0
x[Tr3,C6,C5] 0
x[Tr3,C6,C7] 0
x[Tr3,C6,C8] 0
x[Tr3,C6,C9] 0
x[Tr3,C6,C10] 0
x[Tr3,C6,D1] 0
x[Tr3,C7,C1] 0
x[Tr3,C7,C2] 0
x[Tr3,C7,C3] 0
x[Tr3,C7,C4] 0
x[Tr3,C7,C5] 0
x[Tr3,C7,C6] 0
x[Tr3,C7,C8] 0
x[Tr3,C7,C9] 0
x[Tr3,C7,C10] 0
x[Tr3,C7,D1] 0
x[Tr3,C8,C1] 0
x[Tr3,C8,C2] 0
x[Tr3,C8,C3] 0
x[Tr3,C8,C4] 0
x[Tr3,C8,C5] 0
x[Tr3,C8,C6] 0
x[Tr3,C8,C7] 0
x[Tr3,C8,C9] 0
x[Tr3,C8,C10] 0
x[Tr3,C8,D1] 0
x[Tr3,C9,C1] 0
x[Tr3,C9,C2] 0
x[Tr3,C9,C3] 0
x[Tr3,C9,C4] 0
x[Tr3,C9,C5] 0
x[Tr3,C9,C6] 0
x[Tr3,C9,C7] 0
x[Tr3,C9,C8] 0
x[Tr3,C9,C10] 0
x[Tr3,C9,D1] 0
x[Tr3,C10,C1] 0
x[Tr3,C10,C2] 0
x[Tr3,C10,C3] 0
x[Tr3,C10,C4] 0
x[Tr3,C10,C5] 0
x[Tr3,C10,C6] 0
x[Tr3,C10,C7] 0
x[Tr3,C10,C8] 0
x[Tr3,C10,C9] 0
x[Tr3,C10,D1] 0
x[Tr4,D0,C1] 0
x[Tr4,D0,C2] 0
x[Tr4,D0,C3] 0
x[Tr4,D0,C4] 0
x[Tr4,D0,C5] 0
x[Tr4,D0,C6] 0
x[Tr4,D0,C7] 0
x[Tr4,D0,C8] 0
x[Tr4,D0,C9] 0
x[Tr4,D0,C10] 1
x[Tr4,C1,C2] 1
x[Tr4,C1,C3] 0
x[Tr4,C1,C4] 0
x[Tr4,C1,C5] 0
x[Tr4,C1,C6] 0
x[Tr4,C1,C7] 0
x[Tr4,C1,C8] 0
x[Tr4,C1,C9] 0
x[Tr4,C1,C10] 0
x[Tr4,C1,D1] 0
x[Tr4,C2,C1] 0
x[Tr4,C2,C3] 1
x[Tr4,C2,C4] 0
x[Tr4,C2,C5] 0
x[Tr4,C2,C6] 0
x[Tr4,C2,C7] 0
x[Tr4,C2,C8] 0
x[Tr4,C2,C9] 0
x[Tr4,C2,C10] 0
x[Tr4,C2,D1] 0
x[Tr4,C3,C1] 0
x[Tr4,C3,C2] 0
x[Tr4,C3,C4] 0
x[Tr4,C3,C5] 0
x[Tr4,C3,C6] 0
x[Tr4,C3,C7] 1
x[Tr4,C3,C8] 0
x[Tr4,C3,C9] 0
x[Tr4,C3,C10] 0
x[Tr4,C3,D1] 0
x[Tr4,C4,C1] 0
x[Tr4,C4,C2] 0
x[Tr4,C4,C3] 0
x[Tr4,C4,C5] 0
x[Tr4,C4,C6] 1
x[Tr4,C4,C7] 0
x[Tr4,C4,C8] 0
x[Tr4,C4,C9] 0
x[Tr4,C4,C10] 0
x[Tr4,C4,D1] 0
x[Tr4,C5,C1] 1
x[Tr4,C5,C2] 0
x[Tr4,C5,C3] 0
x[Tr4,C5,C4] 0
x[Tr4,C5,C6] 0
x[Tr4,C5,C7] 0
x[Tr4,C5,C8] 0
x[Tr4,C5,C9] 0
x[Tr4,C5,C10] 0
x[Tr4,C5,D1] 0
x[Tr4,C6,C1] 0
x[Tr4,C6,C2] 0
x[Tr4,C6,C3] 0
x[Tr4,C6,C4] 0
x[Tr4,C6,C5] 0
x[Tr4,C6,C7] 0
x[Tr4,C6,C8] 0
x[Tr4,C6,C9] 0
x[Tr4,C6,C10] 0
x[Tr4,C6,D1] 1
x[Tr4,C7,C1] 0
x[Tr4,C7,C2] 0
x[Tr4,C7,C3] 0
x[Tr4,C7,C4] 1
x[Tr4,C7,C5] 0
x[Tr4,C7,C6] 0
x[Tr4,C7,C8] 0
x[Tr4,C7,C9] 0
x[Tr4,C7,C10] 0
x[Tr4,C7,D1] 0
x[Tr4,C8,C1] 0
x[Tr4,C8,C2] 0
x[Tr4,C8,C3] 0
x[Tr4,C8,C4] 0
x[Tr4,C8,C5] 0
x[Tr4,C8,C6] 0
x[Tr4,C8,C7] 0
x[Tr4,C8,C9] 1
x[Tr4,C8,C10] 0
x[Tr4,C8,D1] 0
x[Tr4,C9,C1] 0
x[Tr4,C9,C2] 0
x[Tr4,C9,C3] 0
x[Tr4,C9,C4] 0
x[Tr4,C9,C5] 1
x[Tr4,C9,C6] 0
x[Tr4,C9,C7] 0
x[Tr4,C9,C8] 0
x[Tr4,C9,C10] 0
x[Tr4,C9,D1] 0
x[Tr4,C10,C1] 0
x[Tr4,C10,C2] 0
x[Tr4,C10,C3] 0
x[Tr4,C10,C4] 0
x[Tr4,C10,C5] 0
x[Tr4,C10,C6] 0
x[Tr4,C10,C7] 0
x[Tr4,C10,C8] 1
x[Tr4,C10,C9] 0
x[Tr4,C10,D1] 0
x[Tr5,D0,C1] 0
x[Tr5,D0,C2] 0
x[Tr5,D0,C3] 0
x[Tr5,D0,C4] 0
x[Tr5,D0,C5] 0
x[Tr5,D0,C6] 0
x[Tr5,D0,C7] 0
x[Tr5,D0,C8] 0
x[Tr5,D0,C9] 0
x[Tr5,D0,C10] 0
x[Tr5,C1,C2] 0
x[Tr5,C1,C3] 0
x[Tr5,C1,C4] 0
x[Tr5,C1,C5] 0
x[Tr5,C1,C6] 0
x[Tr5,C1,C7] 0
x[Tr5,C1,C8] 0
x[Tr5,C1,C9] 0
x[Tr5,C1,C10] 0
x[Tr5,C1,D1] 0
x[Tr5,C2,C1] 0
x[Tr5,C2,C3] 0
x[Tr5,C2,C4] 0
x[Tr5,C2,C5] 0
x[Tr5,C2,C6] 0
x[Tr5,C2,C7] 0
x[Tr5,C2,C8] 0
x[Tr5,C2,C9] 0
x[Tr5,C2,C10] 0
x[Tr5,C2,D1] 0
x[Tr5,C3,C1] 0
x[Tr5,C3,C2] 0
x[Tr5,C3,C4] 0
x[Tr5,C3,C5] 0
x[Tr5,C3,C6] 0
x[Tr5,C3,C7] 0
x[Tr5,C3,C8] 0
x[Tr5,C3,C9] 0
x[Tr5,C3,C10] 0
x[Tr5,C3,D1] 0
x[Tr5,C4,C1] 0
x[Tr5,C4,C2] 0
x[Tr5,C4,C3] 0
x[Tr5,C4,C5] 0
x[Tr5,C4,C6] 0
x[Tr5,C4,C7] 0
x[Tr5,C4,C8] 0
x[Tr5,C4,C9] 0
x[Tr5,C4,C10] 0
x[Tr5,C4,D1] 0
x[Tr5,C5,C1] 0
x[Tr5,C5,C2] 0
x[Tr5,C5,C3] 0
x[Tr5,C5,C4] 0
x[Tr5,C5,C6] 0
x[Tr5,C5,C7] 0
x[Tr5,C5,C8] 0
x[Tr5,C5,C9] 0
x[Tr5,C5,C10] 0
x[Tr5,C5,D1] 0
x[Tr5,C6,C1] 0
x[Tr5,C6,C2] 0
x[Tr5,C6,C3] 0
x[Tr5,C6,C4] 0
x[Tr5,C6,C5] 0
x[Tr5,C6,C7] 0
x[Tr5,C6,C8] 0
x[Tr5,C6,C9] 0
x[Tr5,C6,C10] 0
x[Tr5,C6,D1] 0
x[Tr5,C7,C1] 0
x[Tr5,C7,C2] 0
x[Tr5,C7,C3] 0
x[Tr5,C7,C4] 0
x[Tr5,C7,C5] 0
x[Tr5,C7,C6] 0
x[Tr5,C7,C8] 0
x[Tr5,C7,C9] 0
x[Tr5,C7,C10] 0
x[Tr5,C7,D1] 0
x[Tr5,C8,C1] 0
x[Tr5,C8,C2] 0
x[Tr5,C8,C3] 0
x[Tr5,C8,C4] 0
x[Tr5,C8,C5] 0
x[Tr5,C8,C6] 0
x[Tr5,C8,C7] 0
x[Tr5,C8,C9] 0
x[Tr5,C8,C10] 0
x[Tr5,C8,D1] 0
x[Tr5,C9,C1] 0
x[Tr5,C9,C2] 0
x[Tr5,C9,C3] 0
x[Tr5,C9,C4] 0
x[Tr5,C9,C5] 0
x[Tr5,C9,C6] 0
x[Tr5,C9,C7] 0
x[Tr5,C9,C8] 0
x[Tr5,C9,C10] 0
x[Tr5,C9,D1] 0
x[Tr5,C10,C1] 0
x[Tr5,C10,C2] 0
x[Tr5,C10,C3] 0
x[Tr5,C10,C4] 0
x[Tr5,C10,C5] 0
x[Tr5,C10,C6] 0
x[Tr5,C10,C7] 0
x[Tr5,C10,C8] 0
x[Tr5,C10,C9] 0
x[Tr5,C10,D1] 0
y[Tr1] 0
y[Tr2] 0
y[Tr3] 0
y[Tr4] 1
y[Tr5] 0
t[Tr1,D0] 0
t[Tr1,C1] 0
t[Tr1,C2] 0
t[Tr1,C3] 0
t[Tr1,C4] 0
t[Tr1,C5] 0
t[Tr1,C6] 0
t[Tr1,C7] 0
t[Tr1,C8] 0
t[Tr1,C9] 0
t[Tr1,C10] 0
t[Tr1,D1] 0
t[Tr2,D0] 0
t[Tr2,C1] 0
t[Tr2,C2] 0
t[Tr2,C3] 0
t[Tr2,C4] 0
t[Tr2,C5] 0
t[Tr2,C6] 0
t[Tr2,C7] 0
t[Tr2,C8] 0
t[Tr2,C9] 0
t[Tr2,C10] 0
t[Tr2,D1] 0
t[Tr3,D0] 0
t[Tr3,C1] 0
t[Tr3,C2] 0
t[Tr3,C3] 0
t[Tr3,C4] 0
t[Tr3,C5] 0
t[Tr3,C6] 0
t[Tr3,C7] 0
t[Tr3,C8] 0
t[Tr3,C9] 0
t[Tr3,C10] 0
t[Tr3,D1] 0
t[Tr4,D0] 0
t[Tr4,C1] 0.531666666666595
t[Tr4,C2] 6.3999999999992851e-01
t[Tr4,C3] 7.2833333333326156e-01
t[Tr4,C4] 1.1866666666665955e+00
t[Tr4,C5] 4.8333333333333334e-01
t[Tr4,C6] 1.4133333333332621e+00
t[Tr4,C7] 9.6666666666666667e-01
t[Tr4,C8] 1.9833333333330794e-01
t[Tr4,C9] 3.2833333333328252e-01
t[Tr4,C10] 1.6833333333333389e-01
t[Tr4,D1] 1.4966666666665955e+00
t[Tr5,D0] 0
t[Tr5,C1] 0
t[Tr5,C2] 0
t[Tr5,C3] 0
t[Tr5,C4] 0
t[Tr5,C5] 0
t[Tr5,C6] 0
t[Tr5,C7] 0
t[Tr5,C8] 0
t[Tr5,C9] 0
t[Tr5,C10] 0
t[Tr5,D1] 0
t_max 1.4966666666665955e+00
payload[Tr1,D0,C1] 0
payload[Tr1,D0,C2] 0
payload[Tr1,D0,C3] 0
payload[Tr1,D0,C4] 0
payload[Tr1,D0,C5] 0
payload[Tr1,D0,C6] 0
payload[Tr1,D0,C7] 0
payload[Tr1,D0,C8] 0
payload[Tr1,D0,C9] 0
payload[Tr1,D0,C10] 0
payload[Tr1,C1,C2] 0
payload[Tr1,C1,C3] 0
payload[Tr1,C1,C4] 0
payload[Tr1,C1,C5] 0
payload[Tr1,C1,C6] 0
payload[Tr1,C1,C7] 0
payload[Tr1,C1,C8] 0
payload[Tr1,C1,C9] 0
payload[Tr1,C1,C10] 0
payload[Tr1,C1,D1] 0
payload[Tr1,C2,C1] 0
payload[Tr1,C2,C3] 0
payload[Tr1,C2,C4] 0
payload[Tr1,C2,C5] 0
payload[Tr1,C2,C6] 0
payload[Tr1,C2,C7] 0
payload[Tr1,C2,C8] 0
payload[Tr1,C2,C9] 0
payload[Tr1,C2,C10] 0
payload[Tr1,C2,D1] 0
payload[Tr1,C3,C1] 0
payload[Tr1,C3,C2] 0
payload[Tr1,C3,C4] 0
payload[Tr1,C3,C5] 0
payload[Tr1,C3,C6] 0
payload[Tr1,C3,C7] 0
payload[Tr1,C3,C8] 0
payload[Tr1,C3,C9] 0
payload[Tr1,C3,C10] 0
payload[Tr1,C3,D1] 0
payload[Tr1,C4,C1] 0
payload[Tr1,C4,C2] 0
payload[Tr1,C4,C3] 0
payload[Tr1,C4,C5] 0
payload[Tr1,C4,C6] 0
payload[Tr1,C4,C7] 0
payload[Tr1,C4,C8] 0
payload[Tr1,C4,C9] 0
payload[Tr1,C4,C10] 0
payload[Tr1,C4,D1] 0
payload[Tr1,C5,C1] 0
payload[Tr1,C5,C2] 0
payload[Tr1,C5,C3] 0
payload[Tr1,C5,C4] 0
payload[Tr1,C5,C6] 0
payload[Tr1,C5,C7] 0
payload[Tr1,C5,C8] 0
payload[Tr1,C5,C9] 0
payload[Tr1,C5,C10] 0
payload[Tr1,C5,D1] 0
payload[Tr1,C6,C1] 0
payload[Tr1,C6,C2] 0
payload[Tr1,C6,C3] 0
payload[Tr1,C6,C4] 0
payload[Tr1,C6,C5] 0
payload[Tr1,C6,C7] 0
payload[Tr1,C6,C8] 0
payload[Tr1,C6,C9] 0
payload[Tr1,C6,C10] 0
payload[Tr1,C6,D1] 0
payload[Tr1,C7,C1] 0
payload[Tr1,C7,C2] 0
payload[Tr1,C7,C3] 0
payload[Tr1,C7,C4] 0
payload[Tr1,C7,C5] 0
payload[Tr1,C7,C6] 0
payload[Tr1,C7,C8] 0
payload[Tr1,C7,C9] 0
payload[Tr1,C7,C10] 0
payload[Tr1,C7,D1] 0
payload[Tr1,C8,C1] 0
payload[Tr1,C8,C2] 0
payload[Tr1,C8,C3] 0
payload[Tr1,C8,C4] 0
payload[Tr1,C8,C5] 0
payload[Tr1,C8,C6] 0
payload[Tr1,C8,C7] 0
payload[Tr1,C8,C9] 0
payload[Tr1,C8,C10] 0
payload[Tr1,C8,D1] 0
payload[Tr1,C9,C1] 0
payload[Tr1,C9,C2] 0
payload[Tr1,C9,C3] 0
payload[Tr1,C9,C4] 0
payload[Tr1,C9,C5] 0
payload[Tr1,C9,C6] 0
payload[Tr1,C9,C7] 0
payload[Tr1,C9,C8] 0
payload[Tr1,C9,C10] 0
payload[Tr1,C9,D1] 0
payload[Tr1,C10,C1] 0
payload[Tr1,C10,C2] 0
payload[Tr1,C10,C3] 0
payload[Tr1,C10,C4] 0
payload[Tr1,C10,C5] 0
payload[Tr1,C10,C6] 0
payload[Tr1,C10,C7] 0
payload[Tr1,C10,C8] 0
payload[Tr1,C10,C9] 0
payload[Tr1,C10,D1] 0
payload[Tr2,D0,C1] 0
payload[Tr2,D0,C2] 0
payload[Tr2,D0,C3] 0
payload[Tr2,D0,C4] 0
payload[Tr2,D0,C5] 0
payload[Tr2,D0,C6] 0
payload[Tr2,D0,C7] 0
payload[Tr2,D0,C8] 0
payload[Tr2,D0,C9] 0
payload[Tr2,D0,C10] 0
payload[Tr2,C1,C2] 0
payload[Tr2,C1,C3] 0
payload[Tr2,C1,C4] 0
payload[Tr2,C1,C5] 0
payload[Tr2,C1,C6] 0
payload[Tr2,C1,C7] 0
payload[Tr2,C1,C8] 0
payload[Tr2,C1,C9] 0
payload[Tr2,C1,C10] 0
payload[Tr2,C1,D1] 0
payload[Tr2,C2,C1] 0
payload[Tr2,C2,C3] 0
payload[Tr2,C2,C4] 0
payload[Tr2,C2,C5] 0
payload[Tr2,C2,C6] 0
payload[Tr2,C2,C7] 0
payload[Tr2,C2,C8] 0
payload[Tr2,C2,C9] 0
payload[Tr2,C2,C10] 0
payload[Tr2,C2,D1] 0
payload[Tr2,C3,C1] 0
payload[Tr2,C3,C2] 0
payload[Tr2,C3,C4] 0
payload[Tr2,C3,C5] 0
payload[Tr2,C3,C6] 0
payload[Tr2,C3,C7] 0
payload[Tr2,C3,C8] 0
payload[Tr2,C3,C9] 0
payload[Tr2,C3,C10] 0
payload[Tr2,C3,D1] 0
payload[Tr2,C4,C1] 0
payload[Tr2,C4,C2] 0
payload[Tr2,C4,C3] 0
payload[Tr2,C4,C5] 0
payload[Tr2,C4,C6] 0
payload[Tr2,C4,C7] 0
payload[Tr2,C4,C8] 0
payload[Tr2,C4,C9] 0
payload[Tr2,C4,C10] 0
payload[Tr2,C4,D1] 0
payload[Tr2,C5,C1] 0
payload[Tr2,C5,C2] 0
payload[Tr2,C5,C3] 0
payload[Tr2,C5,C4] 0
payload[Tr2,C5,C6] 0
payload[Tr2,C5,C7] 0
payload[Tr2,C5,C8] 0
payload[Tr2,C5,C9] 0
payload[Tr2,C5,C10] 0
payload[Tr2,C5,D1] 0
payload[Tr2,C6,C1] 0
payload[Tr2,C6,C2] 0
payload[Tr2,C6,C3] 0
payload[Tr2,C6,C4] 0
payload[Tr2,C6,C5] 0
payload[Tr2,C6,C7] 0
payload[Tr2,C6,C8] 0
payload[Tr2,C6,C9] 0
payload[Tr2,C6,C10] 0
payload[Tr2,C6,D1] 0
payload[Tr2,C7,C1] 0
payload[Tr2,C7,C2] 0
payload[Tr2,C7,C3] 0
payload[Tr2,C7,C4] 0
payload[Tr2,C7,C5] 0
payload[Tr2,C7,C6] 0
payload[Tr2,C7,C8] 0
payload[Tr2,C7,C9] 0
payload[Tr2,C7,C10] 0
payload[Tr2,C7,D1] 0
payload[Tr2,C8,C1] 0
payload[Tr2,C8,C2] 0
payload[Tr2,C8,C3] 0
payload[Tr2,C8,C4] 0
payload[Tr2,C8,C5] 0
payload[Tr2,C8,C6] 0
payload[Tr2,C8,C7] 0
payload[Tr2,C8,C9] 0
payload[Tr2,C8,C10] 0
payload[Tr2,C8,D1] 0
payload[Tr2,C9,C1] 0
payload[Tr2,C9,C2] 0
payload[Tr2,C9,C3] 0
payload[Tr2,C9,C4] 0
payload[Tr2,C9,C5] 0
payload[Tr2,C9,C6] 0
payload[Tr2,C9,C7] 0
payload[Tr2,C9,C8] 0
payload[Tr2,C9,C10] 0
payload[Tr2,C9,D1] 0
payload[Tr2,C10,C1] 0
payload[Tr2,C10,C2] 0
payload[Tr2,C10,C3] 0
payload[Tr2,C10,C4] 0
payload[Tr2,C10,C5] 0
payload[Tr2,C10,C6] 0
payload[Tr2,C10,C7] 0
payload[Tr2,C10,C8] 0
payload[Tr2,C10,C9] 0
payload[Tr2,C10,D1] 0
payload[Tr3,D0,C1] 0
payload[Tr3,D0,C2] 0
payload[Tr3,D0,C3] 0
payload[Tr3,D0,C4] 0
payload[Tr3,D0,C5] 0
payload[Tr3,D0,C6] 0
payload[Tr3,D0,C7] 0
payload[Tr3,D0,C8] 0
payload[Tr3,D0,C9] 0
payload[Tr3,D0,C10] 0
payload[Tr3,C1,C2] 0
payload[Tr3,C1,C3] 0
payload[Tr3,C1,C4] 0
payload[Tr3,C1,C5] 0
payload[Tr3,C1,C6] 0
payload[Tr3,C1,C7] 0
payload[Tr3,C1,C8] 0
payload[Tr3,C1,C9] 0
payload[Tr3,C1,C10] 0
payload[Tr3,C1,D1] 0
payload[Tr3,C2,C1] 0
payload[Tr3,C2,C3] 0
payload[Tr3,C2,C4] 0
payload[Tr3,C2,C5] 0
payload[Tr3,C2,C6] 0
payload[Tr3,C2,C7] 0
payload[Tr3,C2,C8] 0
payload[Tr3,C2,C9] 0
payload[Tr3,C2,C10] 0
payload[Tr3,C2,D1] 0
payload[Tr3,C3,C1] 0
payload[Tr3,C3,C2] 0
payload[Tr3,C3,C4] 0
payload[Tr3,C3,C5] 0
payload[Tr3,C3,C6] 0
payload[Tr3,C3,C7] 0
payload[Tr3,C3,C8] 0
payload[Tr3,C3,C9] 0
payload[Tr3,C3,C10] 0
payload[Tr3,C3,D1] 0
payload[Tr3,C4,C1] 0
payload[Tr3,C4,C2] 0
payload[Tr3,C4,C3] 0
payload[Tr3,C4,C5] 0
payload[Tr3,C4,C6] 0
payload[Tr3,C4,C7] 0
payload[Tr3,C4,C8] 0
payload[Tr3,C4,C9] 0
payload[Tr3,C4,C10] 0
payload[Tr3,C4,D1] 0
payload[Tr3,C5,C1] 0
payload[Tr3,C5,C2] 0
payload[Tr3,C5,C3] 0
payload[Tr3,C5,C4] 0
payload[Tr3,C5,C6] 0
payload[Tr3,C5,C7] 0
payload[Tr3,C5,C8] 0
payload[Tr3,C5,C9] 0
payload[Tr3,C5,C10] 0
payload[Tr3,C5,D1] 0
payload[Tr3,C6,C1] 0
payload[Tr3,C6,C2] 0
payload[Tr3,C6,C3] 0
payload[Tr3,C6,C4] 0
payload[Tr3,C6,C5] 0
payload[Tr3,C6,C7] 0
payload[Tr3,C6,C8] 0
payload[Tr3,C6,C9] 0
payload[Tr3,C6,C10] 0
payload[Tr3,C6,D1] 0
payload[Tr3,C7,C1] 0
payload[Tr3,C7,C2] 0
payload[Tr3,C7,C3] 0
payload[Tr3,C7,C4] 0
payload[Tr3,C7,C5] 0
payload[Tr3,C7,C6] 0
payload[Tr3,C7,C8] 0
payload[Tr3,C7,C9] 0
payload[Tr3,C7,C10] 0
payload[Tr3,C7,D1] 0
payload[Tr3,C8,C1] 0
payload[Tr3,C8,C2] 0
payload[Tr3,C8,C3] 0
payload[Tr3,C8,C4] 0
payload[Tr3,C8,C5] 0
payload[Tr3,C8,C6] 0
payload[Tr3,C8,C7] 0
payload[Tr3,C8,C9] 0
payload[Tr3,C8,C10] 0
payload[Tr3,C8,D1] 0
payload[Tr3,C9,C1] 0
payload[Tr3,C9,C2] 0
payload[Tr3,C9,C3] 0
payload[Tr3,C9,C4] 0
payload[Tr3,C9,C5] 0
payload[Tr3,C9,C6] 0
payload[Tr3,C9,C7] 0
payload[Tr3,C9,C8] 0
payload[Tr3,C9,C10] 0
payload[Tr3,C9,D1] 0
payload[Tr3,C10,C1] 0
payload[Tr3,C10,C2] 0
payload[Tr3,C10,C3] 0
payload[Tr3,C10,C4] 0
payload[Tr3,C10,C5] 0
payload[Tr3,C10,C6] 0
payload[Tr3,C10,C7] 0
payload[Tr3,C10,C8] 0
payload[Tr3,C10,C9] 0
payload[Tr3,C10,D1] 0
payload[Tr4,D0,C1] 0
payload[Tr4,D0,C2] 0
payload[Tr4,D0,C3] 0
payload[Tr4,D0,C4] 0
payload[Tr4,D0,C5] 0
payload[Tr4,D0,C6] 0
payload[Tr4,D0,C7] 0
payload[Tr4,D0,C8] 0
payload[Tr4,D0,C9] 0
payload[Tr4,D0,C10] 35.35
payload[Tr4,C1,C2] 1.7519999957106961e+01
payload[Tr4,C1,C3] 0
payload[Tr4,C1,C4] 0
payload[Tr4,C1,C5] 0
payload[Tr4,C1,C6] 0
payload[Tr4,C1,C7] 0
payload[Tr4,C1,C8] 0
payload[Tr4,C1,C9] 0
payload[Tr4,C1,C10] 0
payload[Tr4,C1,D1] 0
payload[Tr4,C2,C1] 0
payload[Tr4,C2,C3] 1.2629999971417877e+01
payload[Tr4,C2,C4] 0
payload[Tr4,C2,C5] 0
payload[Tr4,C2,C6] 0
payload[Tr4,C2,C7] 0
payload[Tr4,C2,C8] 0
payload[Tr4,C2,C9] 0
payload[Tr4,C2,C10] 0
payload[Tr4,C2,D1] 0
payload[Tr4,C3,C1] 0
payload[Tr4,C3,C2] 0
payload[Tr4,C3,C4] 0
payload[Tr4,C3,C5] 0
payload[Tr4,C3,C6] 0
payload[Tr4,C3,C7] 1.1229999995263150e+01
payload[Tr4,C3,C8] 0
payload[Tr4,C3,C9] 0
payload[Tr4,C3,C10] 0
payload[Tr4,C3,D1] 0
payload[Tr4,C4,C1] 0
payload[Tr4,C4,C2] 0
payload[Tr4,C4,C3] 0
payload[Tr4,C4,C5] 0
payload[Tr4,C4,C6] 3.3700000047660978e+00
payload[Tr4,C4,C7] 0
payload[Tr4,C4,C8] 0
payload[Tr4,C4,C9] 0
payload[Tr4,C4,C10] 0
payload[Tr4,C4,D1] 0
payload[Tr4,C5,C1] 2.1369999980940193e+01
payload[Tr4,C5,C2] 0
payload[Tr4,C5,C3] 0
payload[Tr4,C5,C4] 0
payload[Tr4,C5,C6] 0
payload[Tr4,C5,C7] 0
payload[Tr4,C5,C8] 0
payload[Tr4,C5,C9] 0
payload[Tr4,C5,C10] 0
payload[Tr4,C5,D1] 0
payload[Tr4,C6,C1] 0
payload[Tr4,C6,C2] 0
payload[Tr4,C6,C3] 0
payload[Tr4,C6,C4] 0
payload[Tr4,C6,C5] 0
payload[Tr4,C6,C7] 0
payload[Tr4,C6,C8] 0
payload[Tr4,C6,C9] 0
payload[Tr4,C6,C10] 0
payload[Tr4,C6,D1] 0
payload[Tr4,C7,C1] 0
payload[Tr4,C7,C2] 0
payload[Tr4,C7,C3] 0
payload[Tr4,C7,C4] 8.0600000619833736e+00
payload[Tr4,C7,C5] 0
payload[Tr4,C7,C6] 0
payload[Tr4,C7,C8] 0
payload[Tr4,C7,C9] 0
payload[Tr4,C7,C10] 0
payload[Tr4,C7,D1] 0
payload[Tr4,C8,C1] 0
payload[Tr4,C8,C2] 0
payload[Tr4,C8,C3] 0
payload[Tr4,C8,C4] 0
payload[Tr4,C8,C5] 0
payload[Tr4,C8,C6] 0
payload[Tr4,C8,C7] 0
payload[Tr4,C8,C9] 28.6899999141748
payload[Tr4,C8,C10] 0
payload[Tr4,C8,D1] 0
payload[Tr4,C9,C1] 0
payload[Tr4,C9,C2] 0
payload[Tr4,C9,C3] 0
payload[Tr4,C9,C4] 0
payload[Tr4,C9,C5] 2.4879999971399581e+01
payload[Tr4,C9,C6] 0
payload[Tr4,C9,C7] 0
payload[Tr4,C9,C8] 0
payload[Tr4,C9,C10] 0
payload[Tr4,C9,D1] 0
payload[Tr4,C10,C1] 0
payload[Tr4,C10,C2] 0
payload[Tr4,C10,C3] 0
payload[Tr4,C10,C4] 0
payload[Tr4,C10,C5] 0
payload[Tr4,C10,C6] 0
payload[Tr4,C10,C7] 0
payload[Tr4,C10,C8] 3.3509999966621308e+01
payload[Tr4,C10,C9] 0
payload[Tr4,C10,D1] 0
payload[Tr5,D0,C1] 0
payload[Tr5,D0,C2] 0
payload[Tr5,D0,C3] 0
payload[Tr5,D0,C4] 0
payload[Tr5,D0,C5] 0
payload[Tr5,D0,C6] 0
payload[Tr5,D0,C7] 0
payload[Tr5,D0,C8] 0
payload[Tr5,D0,C9] 0
payload[Tr5,D0,C10] 0
payload[Tr5,C1,C2] 0
payload[Tr5,C1,C3] 0
payload[Tr5,C1,C4] 0
payload[Tr5,C1,C5] 0
payload[Tr5,C1,C6] 0
payload[Tr5,C1,C7] 0
payload[Tr5,C1,C8] 0
payload[Tr5,C1,C9] 0
payload[Tr5,C1,C10] 0
payload[Tr5,C1,D1] 0
payload[Tr5,C2,C1] 0
payload[Tr5,C2,C3] 0
payload[Tr5,C2,C4] 0
payload[Tr5,C2,C5] 0
payload[Tr5,C2,C6] 0
payload[Tr5,C2,C7] 0
payload[Tr5,C2,C8] 0
payload[Tr5,C2,C9] 0
payload[Tr5,C2,C10] 0
payload[Tr5,C2,D1] 0
payload[Tr5,C3,C1] 0
payload[Tr5,C3,C2] 0
payload[Tr5,C3,C4] 0
payload[Tr5,C3,C5] 0
payload[Tr5,C3,C6] 0
payload[Tr5,C3,C7] 0
payload[Tr5,C3,C8] 0
payload[Tr5,C3,C9] 0
payload[Tr5,C3,C10] 0
payload[Tr5,C3,D1] 0
payload[Tr5,C4,C1] 0
payload[Tr5,C4,C2] 0
payload[Tr5,C4,C3] 0
payload[Tr5,C4,C5] 0
payload[Tr5,C4,C6] 0
payload[Tr5,C4,C7] 0
payload[Tr5,C4,C8] 0
payload[Tr5,C4,C9] 0
payload[Tr5,C4,C10] 0
payload[Tr5,C4,D1] 0
payload[Tr5,C5,C1] 0
payload[Tr5,C5,C2] 0
payload[Tr5,C5,C3] 0
payload[Tr5,C5,C4] 0
payload[Tr5,C5,C6] 0
payload[Tr5,C5,C7] 0
payload[Tr5,C5,C8] 0
payload[Tr5,C5,C9] 0
payload[Tr5,C5,C10] 0
payload[Tr5,C5,D1] 0
payload[Tr5,C6,C1] 0
payload[Tr5,C6,C2] 0
payload[Tr5,C6,C3] 0
payload[Tr5,C6,C4] 0
payload[Tr5,C6,C5] 0
payload[Tr5,C6,C7] 0
payload[Tr5,C6,C8] 0
payload[Tr5,C6,C9] 0
payload[Tr5,C6,C10] 0
payload[Tr5,C6,D1] 0
payload[Tr5,C7,C1] 0
payload[Tr5,C7,C2] 0
payload[Tr5,C7,C3] 0
payload[Tr5,C7,C4] 0
payload[Tr5,C7,C5] 0
payload[Tr5,C7,C6] 0
payload[Tr5,C7,C8] 0
payload[Tr5,C7,C9] 0
payload[Tr5,C7,C10] 0
payload[Tr5,C7,D1] 0
payload[Tr5,C8,C1] 0
payload[Tr5,C8,C2] 0
payload[Tr5,C8,C3] 0
payload[Tr5,C8,C4] 0
payload[Tr5,C8,C5] 0
payload[Tr5,C8,C6] 0
payload[Tr5,C8,C7] 0
payload[Tr5,C8,C9] 0
payload[Tr5,C8,C10] 0
payload[Tr5,C8,D1] 0
payload[Tr5,C9,C1] 0
payload[Tr5,C9,C2] 0
payload[Tr5,C9,C3] 0
payload[Tr5,C9,C4] 0
payload[Tr5,C9,C5] 0
payload[Tr5,C9,C6] 0
payload[Tr5,C9,C7] 0
payload[Tr5,C9,C8] 0
payload[Tr5,C9,C10] 0
payload[Tr5,C9,D1] 0
payload[Tr5,C10,C1] 0
payload[Tr5,C10,C2] 0
payload[Tr5,C10,C3] 0
payload[Tr5,C10,C4] 0
payload[Tr5,C10,C5] 0
payload[Tr5,C10,C6] 0
payload[Tr5,C10,C7] 0
payload[Tr5,C10,C8] 0
payload[Tr5,C10,C9] 0
payload[Tr5,C10,D1] 0
W_dynamic[Tr1,D0,C1] 0
W_dynamic[Tr1,D0,C2] 0
W_dynamic[Tr1,D0,C3] 0
W_dynamic[Tr1,D0,C4] 0
W_dynamic[Tr1,D0,C5] 0
W_dynamic[Tr1,D0,C6] 0
W_dynamic[Tr1,D0,C7] 0
W_dynamic[Tr1,D0,C8] 0
W_dynamic[Tr1,D0,C9] 0
W_dynamic[Tr1,D0,C10] 0
W_dynamic[Tr1,C1,C2] 0
W_dynamic[Tr1,C1,C3] 0
W_dynamic[Tr1,C1,C4] 0
W_dynamic[Tr1,C1,C5] 0
W_dynamic[Tr1,C1,C6] 0
W_dynamic[Tr1,C1,C7] 0
W_dynamic[Tr1,C1,C8] 0
W_dynamic[Tr1,C1,C9] 0
W_dynamic[Tr1,C1,C10] 0
W_dynamic[Tr1,C1,D1] 0
W_dynamic[Tr1,C2,C1] 0
W_dynamic[Tr1,C2,C3] 0
W_dynamic[Tr1,C2,C4] 0
W_dynamic[Tr1,C2,C5] 0
W_dynamic[Tr1,C2,C6] 0
W_dynamic[Tr1,C2,C7] 0
W_dynamic[Tr1,C2,C8] 0
W_dynamic[Tr1,C2,C9] 0
W_dynamic[Tr1,C2,C10] 0
W_dynamic[Tr1,C2,D1] 0
W_dynamic[Tr1,C3,C1] 0
W_dynamic[Tr1,C3,C2] 0
W_dynamic[Tr1,C3,C4] 0
W_dynamic[Tr1,C3,C5] 0
W_dynamic[Tr1,C3,C6] 0
W_dynamic[Tr1,C3,C7] 0
W_dynamic[Tr1,C3,C8] 0
W_dynamic[Tr1,C3,C9] 0
W_dynamic[Tr1,C3,C10] 0
W_dynamic[Tr1,C3,D1] 0
W_dynamic[Tr1,C4,C1] 0
W_dynamic[Tr1,C4,C2] 0
W_dynamic[Tr1,C4,C3] 0
W_dynamic[Tr1,C4,C5] 0
W_dynamic[Tr1,C4,C6] 0
W_dynamic[Tr1,C4,C7] 0
W_dynamic[Tr1,C4,C8] 0
W_dynamic[Tr1,C4,C9] 0
W_dynamic[Tr1,C4,C10] 0
W_dynamic[Tr1,C4,D1] 0
W_dynamic[Tr1,C5,C1] 0
W_dynamic[Tr1,C5,C2] 0
W_dynamic[Tr1,C5,C3] 0
W_dynamic[Tr1,C5,C4] 0
W_dynamic[Tr1,C5,C6] 0
W_dynamic[Tr1,C5,C7] 0
W_dynamic[Tr1,C5,C8] 0
W_dynamic[Tr1,C5,C9] 0
W_dynamic[Tr1,C5,C10] 0
W_dynamic[Tr1,C5,D1] 0
W_dynamic[Tr1,C6,C1] 0
W_dynamic[Tr1,C6,C2] 0
W_dynamic[Tr1,C6,C3] 0
W_dynamic[Tr1,C6,C4] 0
W_dynamic[Tr1,C6,C5] 0
W_dynamic[Tr1,C6,C7] 0
W_dynamic[Tr1,C6,C8] 0
W_dynamic[Tr1,C6,C9] 0
W_dynamic[Tr1,C6,C10] 0
W_dynamic[Tr1,C6,D1] 0
W_dynamic[Tr1,C7,C1] 0
W_dynamic[Tr1,C7,C2] 0
W_dynamic[Tr1,C7,C3] 0
W_dynamic[Tr1,C7,C4] 0
W_dynamic[Tr1,C7,C5] 0
W_dynamic[Tr1,C7,C6] 0
W_dynamic[Tr1,C7,C8] 0
W_dynamic[Tr1,C7,C9] 0
W_dynamic[Tr1,C7,C10] 0
W_dynamic[Tr1,C7,D1] 0
W_dynamic[Tr1,C8,C1] 0
W_dynamic[Tr1,C8,C2] 0
W_dynamic[Tr1,C8,C3] 0
W_dynamic[Tr1,C8,C4] 0
W_dynamic[Tr1,C8,C5] 0
W_dynamic[Tr1,C8,C6] 0
W_dynamic[Tr1,C8,C7] 0
W_dynamic[Tr1,C8,C9] 0
W_dynamic[Tr1,C8,C10] 0
W_dynamic[Tr1,C8,D1] 0
W_dynamic[Tr1,C9,C1] 0
W_dynamic[Tr1,C9,C2] 0
W_dynamic[Tr1,C9,C3] 0
W_dynamic[Tr1,C9,C4] 0
W_dynamic[Tr1,C9,C5] 0
W_dynamic[Tr1,C9,C6] 0
W_dynamic[Tr1,C9,C7] 0
W_dynamic[Tr1,C9,C8] 0
W_dynamic[Tr1,C9,C10] 0
W_dynamic[Tr1,C9,D1] 0
W_dynamic[Tr1,C10,C1] 0
W_dynamic[Tr1,C10,C2] 0
W_dynamic[Tr1,C10,C3] 0
W_dynamic[Tr1,C10,C4] 0
W_dynamic[Tr1,C10,C5] 0
W_dynamic[Tr1,C10,C6] 0
W_dynamic[Tr1,C10,C7] 0
W_dynamic[Tr1,C10,C8] 0
W_dynamic[Tr1,C10,C9] 0
W_dynamic[Tr1,C10,D1] 0
W_dynamic[Tr2,D0,C1] 0
W_dynamic[Tr2,D0,C2] 0
W_dynamic[Tr2,D0,C3] 0
W_dynamic[Tr2,D0,C4] 0
W_dynamic[Tr2,D0,C5] 0
W_dynamic[Tr2,D0,C6] 0
W_dynamic[Tr2,D0,C7] 0
W_dynamic[Tr2,D0,C8] 0
W_dynamic[Tr2,D0,C9] 0
W_dynamic[Tr2,D0,C10] 0
W_dynamic[Tr2,C1,C2] 0
W_dynamic[Tr2,C1,C3] 0
W_dynamic[Tr2,C1,C4] 0
W_dynamic[Tr2,C1,C5] 0
W_dynamic[Tr2,C1,C6] 0
W_dynamic[Tr2,C1,C7] 0
W_dynamic[Tr2,C1,C8] 0
W_dynamic[Tr2,C1,C9] 0
W_dynamic[Tr2,C1,C10] 0
W_dynamic[Tr2,C1,D1] 0
W_dynamic[Tr2,C2,C1] 0
W_dynamic[Tr2,C2,C3] 0
W_dynamic[Tr2,C2,C4] 0
W_dynamic[Tr2,C2,C5] 0
W_dynamic[Tr2,C2,C6] 0
W_dynamic[Tr2,C2,C7] 0
W_dynamic[Tr2,C2,C8] 0
W_dynamic[Tr2,C2,C9] 0
W_dynamic[Tr2,C2,C10] 0
W_dynamic[Tr2,C2,D1] 0
W_dynamic[Tr2,C3,C1] 0
W_dynamic[Tr2,C3,C2] 0
W_dynamic[Tr2,C3,C4] 0
W_dynamic[Tr2,C3,C5] 0
W_dynamic[Tr2,C3,C6] 0
W_dynamic[Tr2,C3,C7] 0
W_dynamic[Tr2,C3,C8] 0
W_dynamic[Tr2,C3,C9] 0
W_dynamic[Tr2,C3,C10] 0
W_dynamic[Tr2,C3,D1] 0
W_dynamic[Tr2,C4,C1] 0
W_dynamic[Tr2,C4,C2] 0
W_dynamic[Tr2,C4,C3] 0
W_dynamic[Tr2,C4,C5] 0
W_dynamic[Tr2,C4,C6] 0
W_dynamic[Tr2,C4,C7] 0
W_dynamic[Tr2,C4,C8] 0
W_dynamic[Tr2,C4,C9] 0
W_dynamic[Tr2,C4,C10] 0
W_dynamic[Tr2,C4,D1] 0
W_dynamic[Tr2,C5,C1] 0
W_dynamic[Tr2,C5,C2] 0
W_dynamic[Tr2,C5,C3] 0
W_dynamic[Tr2,C5,C4] 0
W_dynamic[Tr2,C5,C6] 0
W_dynamic[Tr2,C5,C7] 0
W_dynamic[Tr2,C5,C8] 0
W_dynamic[Tr2,C5,C9] 0
W_dynamic[Tr2,C5,C10] 0
W_dynamic[Tr2,C5,D1] 0
W_dynamic[Tr2,C6,C1] 0
W_dynamic[Tr2,C6,C2] 0
W_dynamic[Tr2,C6,C3] 0
W_dynamic[Tr2,C6,C4] 0
W_dynamic[Tr2,C6,C5] 0
W_dynamic[Tr2,C6,C7] 0
W_dynamic[Tr2,C6,C8] 0
W_dynamic[Tr2,C6,C9] 0
W_dynamic[Tr2,C6,C10] 0
W_dynamic[Tr2,C6,D1] 0
W_dynamic[Tr2,C7,C1] 0
W_dynamic[Tr2,C7,C2] 0
W_dynamic[Tr2,C7,C3] 0
W_dynamic[Tr2,C7,C4] 0
W_dynamic[Tr2,C7,C5] 0
W_dynamic[Tr2,C7,C6] 0
W_dynamic[Tr2,C7,C8] 0
W_dynamic[Tr2,C7,C9] 0
W_dynamic[Tr2,C7,C10] 0
W_dynamic[Tr2,C7,D1] 0
W_dynamic[Tr2,C8,C1] 0
W_dynamic[Tr2,C8,C2] 0
W_dynamic[Tr2,C8,C3] 0
W_dynamic[Tr2,C8,C4] 0
W_dynamic[Tr2,C8,C5] 0
W_dynamic[Tr2,C8,C6] 0
W_dynamic[Tr2,C8,C7] 0
W_dynamic[Tr2,C8,C9] 0
W_dynamic[Tr2,C8,C10] 0
W_dynamic[Tr2,C8,D1] 0
W_dynamic[Tr2,C9,C1] 0
W_dynamic[Tr2,C9,C2] 0
W_dynamic[Tr2,C9,C3] 0
W_dynamic[Tr2,C9,C4] 0
W_dynamic[Tr2,C9,C5] 0
W_dynamic[Tr2,C9,C6] 0
W_dynamic[Tr2,C9,C7] 0
W_dynamic[Tr2,C9,C8] 0
W_dynamic[Tr2,C9,C10] 0
W_dynamic[Tr2,C9,D1] 0
W_dynamic[Tr2,C10,C1] 0
W_dynamic[Tr2,C10,C2] 0
W_dynamic[Tr2,C10,C3] 0
W_dynamic[Tr2,C10,C4] 0
W_dynamic[Tr2,C10,C5] 0
W_dynamic[Tr2,C10,C6] 0
W_dynamic[Tr2,C10,C7] 0
W_dynamic[Tr2,C10,C8] 0
W_dynamic[Tr2,C10,C9] 0
W_dynamic[Tr2,C10,D1] 0
W_dynamic[Tr3,D0,C1] 0
W_dynamic[Tr3,D0,C2] 0
W_dynamic[Tr3,D0,C3] 0
W_dynamic[Tr3,D0,C4] 0
W_dynamic[Tr3,D0,C5] 0
W_dynamic[Tr3,D0,C6] 0
W_dynamic[Tr3,D0,C7] 0
W_dynamic[Tr3,D0,C8] 0
W_dynamic[Tr3,D0,C9] 0
W_dynamic[Tr3,D0,C10] 0
W_dynamic[Tr3,C1,C2] 0
W_dynamic[Tr3,C1,C3] 0
W_dynamic[Tr3,C1,C4] 0
W_dynamic[Tr3,C1,C5] 0
W_dynamic[Tr3,C1,C6] 0
W_dynamic[Tr3,C1,C7] 0
W_dynamic[Tr3,C1,C8] 0
W_dynamic[Tr3,C1,C9] 0
W_dynamic[Tr3,C1,C10] 0
W_dynamic[Tr3,C1,D1] 0
W_dynamic[Tr3,C2,C1] 0
W_dynamic[Tr3,C2,C3] 0
W_dynamic[Tr3,C2,C4] 0
W_dynamic[Tr3,C2,C5] 0
W_dynamic[Tr3,C2,C6] 0
W_dynamic[Tr3,C2,C7] 0
W_dynamic[Tr3,C2,C8] 0
W_dynamic[Tr3,C2,C9] 0
W_dynamic[Tr3,C2,C10] 0
W_dynamic[Tr3,C2,D1] 0
W_dynamic[Tr3,C3,C1] 0
W_dynamic[Tr3,C3,C2] 0
W_dynamic[Tr3,C3,C4] 0
W_dynamic[Tr3,C3,C5] 0
W_dynamic[Tr3,C3,C6] 0
W_dynamic[Tr3,C3,C7] 0
W_dynamic[Tr3,C3,C8] 0
W_dynamic[Tr3,C3,C9] 0
W_dynamic[Tr3,C3,C10] 0
W_dynamic[Tr3,C3,D1] 0
W_dynamic[Tr3,C4,C1] 0
W_dynamic[Tr3,C4,C2] 0
W_dynamic[Tr3,C4,C3] 0
W_dynamic[Tr3,C4,C5] 0
W_dynamic[Tr3,C4,C6] 0
W_dynamic[Tr3,C4,C7] 0
W_dynamic[Tr3,C4,C8] 0
W_dynamic[Tr3,C4,C9] 0
W_dynamic[Tr3,C4,C10] 0
W_dynamic[Tr3,C4,D1] 0
W_dynamic[Tr3,C5,C1] 0
W_dynamic[Tr3,C5,C2] 0
W_dynamic[Tr3,C5,C3] 0
W_dynamic[Tr3,C5,C4] 0
W_dynamic[Tr3,C5,C6] 0
W_dynamic[Tr3,C5,C7] 0
W_dynamic[Tr3,C5,C8] 0
W_dynamic[Tr3,C5,C9] 0
W_dynamic[Tr3,C5,C10] 0
W_dynamic[Tr3,C5,D1] 0
W_dynamic[Tr3,C6,C1] 0
W_dynamic[Tr3,C6,C2] 0
W_dynamic[Tr3,C6,C3] 0
W_dynamic[Tr3,C6,C4] 0
W_dynamic[Tr3,C6,C5] 0
W_dynamic[Tr3,C6,C7] 0
W_dynamic[Tr3,C6,C8] 0
W_dynamic[Tr3,C6,C9] 0
W_dynamic[Tr3,C6,C10] 0
W_dynamic[Tr3,C6,D1] 0
W_dynamic[Tr3,C7,C1] 0
W_dynamic[Tr3,C7,C2] 0
W_dynamic[Tr3,C7,C3] 0
W_dynamic[Tr3,C7,C4] 0
W_dynamic[Tr3,C7,C5] 0
W_dynamic[Tr3,C7,C6] 0
W_dynamic[Tr3,C7,C8] 0
W_dynamic[Tr3,C7,C9] 0
W_dynamic[Tr3,C7,C10] 0
W_dynamic[Tr3,C7,D1] 0
W_dynamic[Tr3,C8,C1] 0
W_dynamic[Tr3,C8,C2] 0
W_dynamic[Tr3,C8,C3] 0
W_dynamic[Tr3,C8,C4] 0
W_dynamic[Tr3,C8,C5] 0
W_dynamic[Tr3,C8,C6] 0
W_dynamic[Tr3,C8,C7] 0
W_dynamic[Tr3,C8,C9] 0
W_dynamic[Tr3,C8,C10] 0
W_dynamic[Tr3,C8,D1] 0
W_dynamic[Tr3,C9,C1] 0
W_dynamic[Tr3,C9,C2] 0
W_dynamic[Tr3,C9,C3] 0
W_dynamic[Tr3,C9,C4] 0
W_dynamic[Tr3,C9,C5] 0
W_dynamic[Tr3,C9,C6] 0
W_dynamic[Tr3,C9,C7] 0
W_dynamic[Tr3,C9,C8] 0
W_dynamic[Tr3,C9,C10] 0
W_dynamic[Tr3,C9,D1] 0
W_dynamic[Tr3,C10,C1] 0
W_dynamic[Tr3,C10,C2] 0
W_dynamic[Tr3,C10,C3] 0
W_dynamic[Tr3,C10,C4] 0
W_dynamic[Tr3,C10,C5] 0
W_dynamic[Tr3,C10,C6] 0
W_dynamic[Tr3,C10,C7] 0
W_dynamic[Tr3,C10,C8] 0
W_dynamic[Tr3,C10,C9] 0
W_dynamic[Tr3,C10,D1] 0
W_dynamic[Tr4,D0,C1] 0
W_dynamic[Tr4,D0,C2] 0
W_dynamic[Tr4,D0,C3] 0
W_dynamic[Tr4,D0,C4] 0
W_dynamic[Tr4,D0,C5] 0
W_dynamic[Tr4,D0,C6] 0
W_dynamic[Tr4,D0,C7] 0
W_dynamic[Tr4,D0,C8] 0
W_dynamic[Tr4,D0,C9] 0
W_dynamic[Tr4,D0,C10] 1535.35
W_dynamic[Tr4,C1,C2] 1.5175199999571068e+03
W_dynamic[Tr4,C1,C3] 0
W_dynamic[Tr4,C1,C4] 0
W_dynamic[Tr4,C1,C5] 0
W_dynamic[Tr4,C1,C6] 0
W_dynamic[Tr4,C1,C7] 0
W_dynamic[Tr4,C1,C8] 0
W_dynamic[Tr4,C1,C9] 0
W_dynamic[Tr4,C1,C10] 0
W_dynamic[Tr4,C1,D1] 0
W_dynamic[Tr4,C2,C1] 0
W_dynamic[Tr4,C2,C3] 1.5126299999714179e+03
W_dynamic[Tr4,C2,C4] 0
W_dynamic[Tr4,C2,C5] 0
W_dynamic[Tr4,C2,C6] 0
W_dynamic[Tr4,C2,C7] 0
W_dynamic[Tr4,C2,C8] 0
W_dynamic[Tr4,C2,C9] 0
W_dynamic[Tr4,C2,C10] 0
W_dynamic[Tr4,C2,D1] 0
W_dynamic[Tr4,C3,C1] 0
W_dynamic[Tr4,C3,C2] 0
W_dynamic[Tr4,C3,C4] 0
W_dynamic[Tr4,C3,C5] 0
W_dynamic[Tr4,C3,C6] 0
W_dynamic[Tr4,C3,C7] 1.5112299999952631e+03
W_dynamic[Tr4,C3,C8] 0
W_dynamic[Tr4,C3,C9] 0
W_dynamic[Tr4,C3,C10] 0
W_dynamic[Tr4,C3,D1] 0
W_dynamic[Tr4,C4,C1] 0
W_dynamic[Tr4,C4,C2] 0
W_dynamic[Tr4,C4,C3] 0
W_dynamic[Tr4,C4,C5] 0
W_dynamic[Tr4,C4,C6] 1.5033700000047661e+03
W_dynamic[Tr4,C4,C7] 0
W_dynamic[Tr4,C4,C8] 0
W_dynamic[Tr4,C4,C9] 0
W_dynamic[Tr4,C4,C10] 0
W_dynamic[Tr4,C4,D1] 0
W_dynamic[Tr4,C5,C1] 1.5213699999809403e+03
W_dynamic[Tr4,C5,C2] 0
W_dynamic[Tr4,C5,C3] 0
W_dynamic[Tr4,C5,C4] 0
W_dynamic[Tr4,C5,C6] 0
W_dynamic[Tr4,C5,C7] 0
W_dynamic[Tr4,C5,C8] 0
W_dynamic[Tr4,C5,C9] 0
W_dynamic[Tr4,C5,C10] 0
W_dynamic[Tr4,C5,D1] 0
W_dynamic[Tr4,C6,C1] 0
W_dynamic[Tr4,C6,C2] 0
W_dynamic[Tr4,C6,C3] 0
W_dynamic[Tr4,C6,C4] 0
W_dynamic[Tr4,C6,C5] 0
W_dynamic[Tr4,C6,C7] 0
W_dynamic[Tr4,C6,C8] 0
W_dynamic[Tr4,C6,C9] 0
W_dynamic[Tr4,C6,C10] 0
W_dynamic[Tr4,C6,D1] 1500
W_dynamic[Tr4,C7,C1] 0
W_dynamic[Tr4,C7,C2] 0
W_dynamic[Tr4,C7,C3] 0
W_dynamic[Tr4,C7,C4] 1.5080600000619834e+03
W_dynamic[Tr4,C7,C5] 0
W_dynamic[Tr4,C7,C6] 0
W_dynamic[Tr4,C7,C8] 0
W_dynamic[Tr4,C7,C9] 0
W_dynamic[Tr4,C7,C10] 0
W_dynamic[Tr4,C7,D1] 0
W_dynamic[Tr4,C8,C1] 0
W_dynamic[Tr4,C8,C2] 0
W_dynamic[Tr4,C8,C3] 0
W_dynamic[Tr4,C8,C4] 0
W_dynamic[Tr4,C8,C5] 0
W_dynamic[Tr4,C8,C6] 0
W_dynamic[Tr4,C8,C7] 0
W_dynamic[Tr4,C8,C9] 1.5286899999141749e+03
W_dynamic[Tr4,C8,C10] 0
W_dynamic[Tr4,C8,D1] 0
W_dynamic[Tr4,C9,C1] 0
W_dynamic[Tr4,C9,C2] 0
W_dynamic[Tr4,C9,C3] 0
W_dynamic[Tr4,C9,C4] 0
W_dynamic[Tr4,C9,C5] 1.5248799999713997e+03
W_dynamic[Tr4,C9,C6] 0
W_dynamic[Tr4,C9,C7] 0
W_dynamic[Tr4,C9,C8] 0
W_dynamic[Tr4,C9,C10] 0
W_dynamic[Tr4,C9,D1] 0
W_dynamic[Tr4,C10,C1] 0
W_dynamic[Tr4,C10,C2] 0
W_dynamic[Tr4,C10,C3] 0
W_dynamic[Tr4,C10,C4] 0
W_dynamic[Tr4,C10,C5] 0
W_dynamic[Tr4,C10,C6] 0
W_dynamic[Tr4,C10,C7] 0
W_dynamic[Tr4,C10,C8] 1.5335099999666213e+03
W_dynamic[Tr4,C10,C9] 0
W_dynamic[Tr4,C10,D1] 0
W_dynamic[Tr5,D0,C1] 0
W_dynamic[Tr5,D0,C2] 0
W_dynamic[Tr5,D0,C3] 0
W_dynamic[Tr5,D0,C4] 0
W_dynamic[Tr5,D0,C5] 0
W_dynamic[Tr5,D0,C6] 0
W_dynamic[Tr5,D0,C7] 0
W_dynamic[Tr5,D0,C8] 0
W_dynamic[Tr5,D0,C9] 0
W_dynamic[Tr5,D0,C10] 0
W_dynamic[Tr5,C1,C2] 0
W_dynamic[Tr5,C1,C3] 0
W_dynamic[Tr5,C1,C4] 0
W_dynamic[Tr5,C1,C5] 0
W_dynamic[Tr5,C1,C6] 0
W_dynamic[Tr5,C1,C7] 0
W_dynamic[Tr5,C1,C8] 0
W_dynamic[Tr5,C1,C9] 0
W_dynamic[Tr5,C1,C10] 0
W_dynamic[Tr5,C1,D1] 0
W_dynamic[Tr5,C2,C1] 0
W_dynamic[Tr5,C2,C3] 0
W_dynamic[Tr5,C2,C4] 0
W_dynamic[Tr5,C2,C5] 0
W_dynamic[Tr5,C2,C6] 0
W_dynamic[Tr5,C2,C7] 0
W_dynamic[Tr5,C2,C8] 0
W_dynamic[Tr5,C2,C9] 0
W_dynamic[Tr5,C2,C10] 0
W_dynamic[Tr5,C2,D1] 0
W_dynamic[Tr5,C3,C1] 0
W_dynamic[Tr5,C3,C2] 0
W_dynamic[Tr5,C3,C4] 0
W_dynamic[Tr5,C3,C5] 0
W_dynamic[Tr5,C3,C6] 0
W_dynamic[Tr5,C3,C7] 0
W_dynamic[Tr5,C3,C8] 0
W_dynamic[Tr5,C3,C9] 0
W_dynamic[Tr5,C3,C10] 0
W_dynamic[Tr5,C3,D1] 0
W_dynamic[Tr5,C4,C1] 0
W_dynamic[Tr5,C4,C2] 0
W_dynamic[Tr5,C4,C3] 0
W_dynamic[Tr5,C4,C5] 0
W_dynamic[Tr5,C4,C6] 0
W_dynamic[Tr5,C4,C7] 0
W_dynamic[Tr5,C4,C8] 0
W_dynamic[Tr5,C4,C9] 0
W_dynamic[Tr5,C4,C10] 0
W_dynamic[Tr5,C4,D1] 0
W_dynamic[Tr5,C5,C1] 0
W_dynamic[Tr5,C5,C2] 0
W_dynamic[Tr5,C5,C3] 0
W_dynamic[Tr5,C5,C4] 0
W_dynamic[Tr5,C5,C6] 0
W_dynamic[Tr5,C5,C7] 0
W_dynamic[Tr5,C5,C8] 0
W_dynamic[Tr5,C5,C9] 0
W_dynamic[Tr5,C5,C10] 0
W_dynamic[Tr5,C5,D1] 0
W_dynamic[Tr5,C6,C1] 0
W_dynamic[Tr5,C6,C2] 0
W_dynamic[Tr5,C6,C3] 0
W_dynamic[Tr5,C6,C4] 0
W_dynamic[Tr5,C6,C5] 0
W_dynamic[Tr5,C6,C7] 0
W_dynamic[Tr5,C6,C8] 0
W_dynamic[Tr5,C6,C9] 0
W_dynamic[Tr5,C6,C10] 0
W_dynamic[Tr5,C6,D1] 0
W_dynamic[Tr5,C7,C1] 0
W_dynamic[Tr5,C7,C2] 0
W_dynamic[Tr5,C7,C3] 0
W_dynamic[Tr5,C7,C4] 0
W_dynamic[Tr5,C7,C5] 0
W_dynamic[Tr5,C7,C6] 0
W_dynamic[Tr5,C7,C8] 0
W_dynamic[Tr5,C7,C9] 0
W_dynamic[Tr5,C7,C10] 0
W_dynamic[Tr5,C7,D1] 0
W_dynamic[Tr5,C8,C1] 0
W_dynamic[Tr5,C8,C2] 0
W_dynamic[Tr5,C8,C3] 0
W_dynamic[Tr5,C8,C4] 0
W_dynamic[Tr5,C8,C5] 0
W_dynamic[Tr5,C8,C6] 0
W_dynamic[Tr5,C8,C7] 0
W_dynamic[Tr5,C8,C9] 0
W_dynamic[Tr5,C8,C10] 0
W_dynamic[Tr5,C8,D1] 0
W_dynamic[Tr5,C9,C1] 0
W_dynamic[Tr5,C9,C2] 0
W_dynamic[Tr5,C9,C3] 0
W_dynamic[Tr5,C9,C4] 0
W_dynamic[Tr5,C9,C5] 0
W_dynamic[Tr5,C9,C6] 0
W_dynamic[Tr5,C9,C7] 0
W_dynamic[Tr5,C9,C8] 0
W_dynamic[Tr5,C9,C10] 0
W_dynamic[Tr5,C9,D1] 0
W_dynamic[Tr5,C10,C1] 0
W_dynamic[Tr5,C10,C2] 0
W_dynamic[Tr5,C10,C3] 0
W_dynamic[Tr5,C10,C4] 0
W_dynamic[Tr5,C10,C5] 0
W_dynamic[Tr5,C10,C6] 0
W_dynamic[Tr5,C10,C7] 0
W_dynamic[Tr5,C10,C8] 0
W_dynamic[Tr5,C10,C9] 0
W_dynamic[Tr5,C10,D1] 0
